# 3d micelle simulation


neighbor	0.3 bin
neigh_modify	delay 5

atom_style	bond

# Soft potential push-off

read_data	data.micelle3D
Reading data file ...
  orthogonal box = (0 0 0) to (19.694639 19.694639 19.694639)
  1 by 1 by 1 MPI processor grid
  reading atoms ...
  4896 atoms
  scanning bonds ...
  1 = max bonds/atom
  orthogonal box = (0 0 0) to (19.694639 19.694639 19.694639)
  1 by 1 by 1 MPI processor grid
  reading bonds ...
  800 bonds
Finding 1-2 1-3 1-4 neighbors ...
  special bond factors lj:    0        0        0       
  special bond factors coul:  0        0        0       
     2 = max # of 1-2 neighbors
     2 = max # of 1-3 neighbors
     2 = max # of 1-4 neighbors
     4 = max # of special neighbors
  special bonds CPU = 0.004 seconds
  read_data CPU = 0.045 seconds
special_bonds	fene
Finding 1-2 1-3 1-4 neighbors ...
  special bond factors lj:    0        1        1       
  special bond factors coul:  0        1        1       
     2 = max # of 1-2 neighbors
     4 = max # of special neighbors
  special bonds CPU = 0.001 seconds

pair_style	soft 1.12246
pair_coeff	* * 0.0 1.12246

bond_style 	harmonic
bond_coeff	1 50.0 0.75

velocity	all create 0.45 2349852

variable	prefactor equal ramp(1.0,20.0)

fix		1 all nve
fix		2 all temp/rescale 100 0.45 0.45 0.02 1.0
fix		3 all adapt 1 pair soft a * * v_prefactor

thermo		200
run		30000
Generated 0 of 21 mixed pair_coeff terms from geometric mixing rule
WARNING: Communication cutoff 1.42246 is shorter than a bond length based estimate of 1.425. This may lead to errors. (../comm.cpp:730)
Neighbor list info ...
  update: every = 1 steps, delay = 5 steps, check = yes
  max neighbors/atom: 2000, page size: 100000
  master list distance cutoff = 1.42246
  ghost atom cutoff = 1.42246
  binsize = 0.71123, bins = 28 28 28
  1 neighbor lists, perpetual/occasional/extra = 1 0 0
  (1) pair soft, perpetual
      attributes: half, newton on
      pair build: half/bin/newton
      stencil: half/bin/3d
      bin: standard
WARNING: Communication cutoff 1.42246 is shorter than a bond length based estimate of 1.425. This may lead to errors. (../comm.cpp:730)
WARNING: Inconsistent image flags (../domain.cpp:1051)
Per MPI rank memory allocation (min/avg/max) = 4.607 | 4.607 | 4.607 Mbytes
   Step          Temp          E_pair         E_mol          TotEng         Press     
         0   0.45           0.25499683     2.9291316      3.8589905     -2.207997     
       200   0.45           0.22200818     0.38366457     1.2805349      0.19336216   
       400   0.43726609     0.21507207     0.18323168     1.0540689      0.43214727   
       600   0.46385517     0.19459428     0.18217392     1.0724088      0.42377291   
       800   0.45           0.22939026     0.15614523     1.0603976      0.49499453   
      1000   0.46637347     0.23730822     0.14232679     1.0790523      0.55156463   
      1200   0.46141619     0.23883537     0.12671719     1.0575355      0.58909096   
      1400   0.46927082     0.2571615      0.11422374     1.0751477      0.62198474   
      1600   0.45707215     0.26640381     0.097278659    1.0491507      0.67620296   
      1800   0.46624697     0.27628815     0.090026694    1.0655424      0.73201859   
      2000   0.46212867     0.27292126     0.075619642    1.0415923      0.75482577   
      2200   0.45483664     0.26967682     0.069444642    1.0212371      0.7552538    
      2400   0.46630942     0.27488912     0.060967473    1.0351779      0.79835203   
      2600   0.46669041     0.29242287     0.056826863    1.0491424      0.82631571   
      2800   0.46024099     0.28499997     0.053690896    1.0289113      0.84273231   
      3000   0.45           0.28723401     0.045660197    1.0077563      0.86978895   
      3200   0.45922171     0.28847171     0.042680788    1.0198444      0.88888822   
      3400   0.45           0.28447984     0.041455639    1.0007976      0.89895655   
      3600   0.45663387     0.28704974     0.040219957    1.0120806      0.90893211   
      3800   0.46706423     0.28487183     0.037686008    1.0230111      0.93096096   
      4000   0.44996287     0.28552772     0.04004127     1.0003754      0.93278836   
      4200   0.45846227     0.28464437     0.038086868    1.0102842      0.95625051   
      4400   0.46265648     0.28734577     0.038838595    1.0200273      0.95915825   
      4600   0.45272457     0.28345217     0.033841431    0.99624175     0.98467081   
      4800   0.46212845     0.27390937     0.038118835    1.0050793      0.9721735    
      5000   0.46536654     0.27852773     0.037236596    1.0136716      0.9937045    
      5200   0.4688093      0.28279966     0.036318512    1.0221885      1.0286948    
      5400   0.45           0.2789995      0.040375072    0.99423671     1.0137962    
      5600   0.45660861     0.28017149     0.037092064    1.0020366      1.020508     
      5800   0.45754844     0.28533062     0.038218573    1.0097317      1.05611      
      6000   0.46097224     0.28956966     0.036322659    1.0172094      1.0879664    
      6200   0.46989222     0.28005183     0.03977841     1.0245246      1.0758103    
      6400   0.46200341     0.27088792     0.037672567    1.0014241      1.0789403    
      6600   0.46234119     0.28011915     0.034779726    1.008269       1.1036287    
      6800   0.46767765     0.27757878     0.035993824    1.0149458      1.1057497    
      7000   0.46175562     0.29129714     0.037827512    1.0216166      1.1306221    
      7200   0.45608293     0.27429799     0.034320238    0.9926029      1.1175555    
      7400   0.46295839     0.27202051     0.032417128    0.99873338     1.1268962    
      7600   0.4655859      0.26764382     0.038818391    1.0046984      1.1322918    
      7800   0.46079456     0.28051488     0.039010079    1.0105756      1.1434104    
      8000   0.46894185     0.27492559     0.038229859    1.0164246      1.1755575    
      8200   0.45630302     0.26806469     0.037535004    0.98991443     1.1722366    
      8400   0.46253723     0.26611296     0.035565778    0.99534287     1.143132     
      8600   0.46220082     0.27325695     0.034352743    1.0007693      1.1940809    
      8800   0.46205867     0.27501647     0.038153923    1.0061168      1.1982099    
      9000   0.46607963     0.27461983     0.037717037    1.0113135      1.1995608    
      9200   0.45191819     0.27223421     0.034830467    0.98480351     1.2033218    
      9400   0.45641898     0.26896721     0.036306113    0.98976196     1.2162253    
      9600   0.46365403     0.2613961      0.037862798    0.99459789     1.2053843    
      9800   0.45           0.24982104     0.041217331    0.96590051     1.1791931    
     10000   0.45439435     0.25465593     0.034199016    0.97030726     1.2153553    
     10200   0.45426104     0.25624052     0.037216989    0.97470989     1.2296136    
     10400   0.45485624     0.26096596     0.035910489    0.97902144     1.2205755    
     10600   0.45811231     0.26224914     0.034085445    0.98336269     1.2351535    
     10800   0.45458978     0.27083497     0.035019862    0.98760023     1.2754503    
     11000   0.46807926     0.25470452     0.035106496    0.9917865      1.2790639    
     11200   0.46610237     0.26026696     0.036664458    0.99594217     1.2831733    
     11400   0.46410611     0.26673336     0.037300539    1.0000509      1.2840851    
     11600   0.45           0.2599612      0.036579156    0.97140249     1.2831735    
     11800   0.45524379     0.25538781     0.037106099    0.97522012     1.3002892    
     12000   0.45884321     0.25527262     0.035621737    0.9790186      1.2997007    
     12200   0.45649542     0.26187334     0.036272987    0.98274961     1.3071749    
     12400   0.46422264     0.25375908     0.036444276    0.98639509     1.295118     
     12600   0.46716175     0.25421614     0.035226127    0.99004177     1.3068092    
     12800   0.46511378     0.2588984      0.03716248     0.99358906     1.3328162    
     13000   0.46992341     0.2567228      0.035678093    0.99714204     1.3306456    
     13200   0.45           0.25277946     0.039225925    0.96686752     1.3119496    
     13400   0.45358537     0.2528906      0.037065501    0.97019519     1.3242588    
     13600   0.45805886     0.24677142     0.039771658    0.97349103     1.3252409    
     13800   0.46203411     0.24918235     0.034636251    0.97672821     1.3450558    
     14000   0.45884951     0.25671321     0.035067312    0.97991421     1.3666473    
     14200   0.46779542     0.24573859     0.035821235    0.98310964     1.3579802    
     14400   0.45965098     0.25699828     0.039946185    0.9862801      1.3629629    
     14600   0.46280544     0.25617877     0.039175809    0.98942095     1.3969441    
     14800   0.45226045     0.24850301     0.034466204    0.96122133     1.3652033    
     15000   0.45433497     0.24692083     0.035924834    0.96420892     1.3738833    
     15200   0.45826019     0.24331782     0.036578829    0.96714653     1.3601537    
     15400   0.46132938     0.24349123     0.034677947    0.97002191     1.371185     
     15600   0.45971305     0.24904566     0.034458809    0.9729332      1.3878821    
     15800   0.46061162     0.24912329     0.035892731    0.97579233     1.4093053    
     16000   0.46428122     0.24128981     0.04101895     0.97858835     1.3828002    
     16200   0.44674483     0.23967862     0.038340133    0.94799913     1.3861378    
     16400   0.45350222     0.23510114     0.035415585    0.95063112     1.3778822    
     16600   0.45188211     0.23481124     0.040773615    0.95326958     1.3692343    
     16800   0.45252421     0.2430246      0.034205327    0.9558776      1.4181401    
     17000   0.45322475     0.24033523     0.038421553    0.95845505     1.3918275    
     17200   0.46185758     0.23295899     0.035379857    0.96098372     1.4032502    
     17400   0.45565207     0.23910112     0.041055592    0.96349521     1.4139944    
     17600   0.45958221     0.23745644     0.039330138    0.96601909     1.4203049    
     17800   0.46035492     0.23963693     0.038458622    0.9684869      1.4507721    
     18000   0.46274624     0.23823269     0.038746087    0.97095637     1.437359     
     18200   0.46249386     0.24233463     0.037452782    0.97338651     1.4398309    
     18400   0.46875026     0.2365523      0.036276269    0.97581034     1.4588531    
     18600   0.45365823     0.23268899     0.032468806    0.94550615     1.4189261    
     18800   0.45791932     0.22803301     0.033035891    0.94780759     1.445186     
     19000   0.45645397     0.22934937     0.036151872    0.95004236     1.4554394    
     19200   0.4602651      0.22750325     0.034540126    0.95230001     1.4557245    
     19400   0.46046692     0.2256205      0.038347684    0.95452749     1.43642      
     19600   0.45592255     0.23558651     0.037393426    0.95672408     1.4885954    
     19800   0.46443136     0.22623245     0.036163827    0.95890103     1.4601198    
     20000   0.46013509     0.23381976     0.037200157    0.96108158     1.4796625    
     20200   0.46256231     0.23198633     0.037514461    0.96320254     1.4912557    
     20400   0.45681985     0.24113701     0.039108152    0.96533498     1.522602     
     20600   0.46192461     0.23955978     0.035163758    0.96746894     1.4902975    
     20800   0.4634286      0.23547527     0.039084048    0.96956024     1.50159      
     21000   0.46650651     0.23797104     0.034010826    0.97159871     1.5134791    
     21200   0.46677956     0.23546334     0.038205367    0.97369504     1.5114965    
     21400   0.4514705      0.22698679     0.036025136    0.94007936     1.4861547    
     21600   0.45853809     0.22083694     0.033523374    0.94202697     1.5006184    
     21800   0.45694974     0.22392559     0.034745359    0.94395556     1.4873485    
     22000   0.45595743     0.22484693     0.037203167    0.94584656     1.4977385    
     22200   0.4556077      0.22631939     0.038139809    0.94773116     1.5237763    
     22400   0.46086261     0.22079354     0.037671989    0.94961824     1.50955      
     22600   0.46232236     0.22055415     0.037602114    0.95149816     1.5043979    
     22800   0.46355684     0.22054277     0.037589005    0.95332502     1.5379342    
     23000   0.46595126     0.21903879     0.037322       0.95514492     1.5054379    
     23200   0.46284294     0.22585029     0.037017295    0.95699019     1.5373277    
     23400   0.46227549     0.22788314     0.037655104    0.95880985     1.5442457    
     23600   0.46434478     0.22766607     0.036580734    0.96062171     1.5247769    
     23800   0.46383092     0.23172439     0.035083152    0.96241183     1.5770799    
     24000   0.45           0.21763588     0.038120816    0.93061883     1.5052111    
     24200   0.4463304      0.22631774     0.036644146    0.93232075     1.5309318    
     24400   0.45646977     0.21483991     0.034556948    0.93396167     1.5155804    
     24600   0.45162212     0.22134081     0.037015579    0.93565121     1.5405077    
     24800   0.45490261     0.21565042     0.039432269    0.93729723     1.5265738    
     25000   0.45564675     0.21808183     0.037530929    0.93894328     1.5361071    
     25200   0.45408746     0.22251387     0.037080595    0.94058653     1.5638337    
     25400   0.45606928     0.21919911     0.03905299     0.94221629     1.5590672    
     25600   0.46376294     0.2096106      0.038701664    0.94381458     1.5286538    
     25800   0.46563126     0.20994352     0.037153824    0.94540158     1.5285617    
     26000   0.46111485     0.2198329      0.035623379    0.94698729     1.5787957    
     26200   0.46100963     0.22196776     0.035232287    0.94857325     1.5921449    
     26400   0.46260003     0.22271174     0.033690089    0.95016014     1.5876984    
     26600   0.4600489      0.22430014     0.037512475    0.95174502     1.6029106    
     26800   0.46186328     0.22490295     0.035740146    0.95329651     1.5948767    
     27000   0.46600665     0.21857299     0.037391058    0.95483125     1.5763156    
     27200   0.46729089     0.21655115     0.039022817    0.95636714     1.5781699    
     27400   0.46989603     0.21796904     0.035256738    0.95792586     1.6015433    
     27600   0.45           0.21463882     0.035535841    0.92503679     1.5666129    
     27800   0.45525079     0.20923892     0.034510104    0.92648573     1.5738379    
     28000   0.4545757      0.20984587     0.036353672    0.92792383     1.5539606    
     28200   0.45759459     0.20823944     0.034828515    0.92931966     1.5884626    
     28400   0.45368294     0.21536058     0.034984247    0.93073024     1.5926859    
     28600   0.45715601     0.21221455     0.034316072    0.93212458     1.5877741    
     28800   0.45853297     0.20539466     0.040469773    0.9335234      1.5527586    
     29000   0.45662609     0.21263177     0.037437873    0.93486889     1.6031289    
     29200   0.45479073     0.21476623     0.039421414    0.93623441     1.5906358    
     29400   0.45766318     0.21229393     0.038926541    0.93757502     1.6148738    
     29600   0.4610079      0.21181273     0.035740295    0.93892364     1.6051638    
     29800   0.46369583     0.20821013     0.036663419    0.94027524     1.5887209    
     30000   0.46456155     0.20890436     0.035980651    0.94158501     1.6079162    
Loop time of 40.9337 on 1 procs for 30000 steps with 4896 atoms

Performance: 316609.775 tau/day, 732.893 timesteps/s, 3.588 Matom-step/s
95.6% CPU use with 1 MPI tasks x no OpenMP threads

MPI task timing breakdown:
Section |  min time  |  avg time  |  max time  |%varavg| %total
---------------------------------------------------------------
Pair    | 21.099     | 21.099     | 21.099     |   0.0 | 51.54
Bond    | 0.70843    | 0.70843    | 0.70843    |   0.0 |  1.73
Neigh   | 13.77      | 13.77      | 13.77      |   0.0 | 33.64
Comm    | 1.6213     | 1.6213     | 1.6213     |   0.0 |  3.96
Output  | 0.020281   | 0.020281   | 0.020281   |   0.0 |  0.05
Modify  | 2.8101     | 2.8101     | 2.8101     |   0.0 |  6.86
Other   |            | 0.9043     |            |       |  2.21

Nlocal:           4896 ave        4896 max        4896 min
Histogram: 1 0 0 0 0 0 0 0 0 0
Nghost:           2439 ave        2439 max        2439 min
Histogram: 1 0 0 0 0 0 0 0 0 0
Neighs:          18085 ave       18085 max       18085 min
Histogram: 1 0 0 0 0 0 0 0 0 0

Total # of neighbors = 18085
Ave neighs/atom = 3.6938317
Ave special neighs/atom = 0.32679739
Neighbor list builds = 3008
Dangerous builds = 28

unfix		3
unfix 2
unfix 1
# Main run

pair_style	lj/cut 2.5

# solvent/head - full-size and long-range Head=2
pair_coeff	2 2 1.0 1.58740105 2.5
pair_coeff	1 2 1.0 1.295370053 2.5
pair_coeff	2 7 1.0 1.295370053 1.12246


# tail/tail - size-averaged and long-range
pair_coeff	3 3 1.0 1.0 2.5
pair_coeff	4 4 1.0 0.75 2.5
pair_coeff	5 5 1.0 0.75 2.5
pair_coeff	6 6 1.0 0.75 2.5
pair_coeff	3 4*6 1.0 0.75 2.5
pair_coeff	4 5*6 1.0 0.75 2.5
pair_coeff	5 6 1.0 0.75 2.5

# solvent/tail - full-size and repulsive
pair_coeff	1 3*6 1.0 1.0 1.12246
pair_coeff	3*6 7 1.0 1.0 2.5

# head/tail - size-averaged and repulsive
pair_coeff	2 3*6 1.0 1.29370053 1.12246

# solvent/solvent
pair_coeff	1 1 1.0 1.0 2.5
pair_coeff	1 7 1.0 1.0 1.12246
pair_coeff	7 7 1.0 1.0 2.5


group surfactant type 2 3 4 5 6
1000 atoms in group surfactant
group water type 1
3505 atoms in group water
group oil type 7
391 atoms in group oil

# unfix 1
#unfix 2
fix		nvt all nvt temp 1.0 1.0 0.02
# fix		4 surfactant rdf 50000 RDF.out 500 1 1 1 2 1 3 1 4
thermo		500
group H type 2
200 atoms in group H
group T type 3 4 5 6
800 atoms in group T
# group O type 10
group W type 1
3505 atoms in group W

set group H mol 1
Setting atom values ...
  200 settings made for mol
set group T mol 2
Setting atom values ...
  800 settings made for mol
# set group O mol 3
set group W mol 3
Setting atom values ...
  3505 settings made for mol

 compute	2 all temp
 compute	3 all pressure 2

dump		1 all custom 500 movie.lammpsEq id type x y z
#dump		2 all custom 1000 record.in id mol type x y z vx vy vz

reset_timestep	0
thermo_style	custom step press pxx pyy pzz pxy pxz pyz
run		300000
Generated 0 of 21 mixed pair_coeff terms from geometric mixing rule
Neighbor list info ...
  update: every = 1 steps, delay = 5 steps, check = yes
  max neighbors/atom: 2000, page size: 100000
  master list distance cutoff = 2.8
  ghost atom cutoff = 2.8
  binsize = 1.4, bins = 15 15 15
  1 neighbor lists, perpetual/occasional/extra = 1 0 0
  (1) pair lj/cut, perpetual
      attributes: half, newton on
      pair build: half/bin/newton
      stencil: half/bin/3d
      bin: standard
WARNING: Inconsistent image flags (../domain.cpp:1051)
Per MPI rank memory allocation (min/avg/max) = 4.556 | 4.556 | 4.556 Mbytes
   Step         Press           Pxx            Pyy            Pzz            Pxy            Pxz            Pyz      
         0   8.1151219      8.5413503      7.7259446      8.0780707      0.10500902     0.40450895     0.18951595   
       500   0.94564048     0.91032917     0.96263683     0.96395543    -0.059322295   -0.023945383   -0.04032119   
      1000   0.78423549     0.81973203     0.75249788     0.78047657    -0.031060543    0.012725861    0.03460292   
      1500   0.70154593     0.69193074     0.69146736     0.7212397     -0.037941169   -0.028528077    0.041991102  
      2000   0.60548925     0.66860491     0.58966559     0.55819725    -0.065814613   -0.0061881206  -0.082872174  
      2500   0.63874993     0.60702465     0.65052446     0.65870066     0.0040614032  -0.027677429   -0.07806394   
      3000   0.55162353     0.56927994     0.51576031     0.56983033    -0.058113415    0.017126285   -0.020473351  
      3500   0.56230259     0.58947493     0.47718362     0.62024922    -0.0098958661   0.036494211   -0.08113124   
      4000   0.45942992     0.49131052     0.48222605     0.4047532      0.028052613   -0.044270811    0.037092338  
      4500   0.45685949     0.49616046     0.47955099     0.39486702     0.048845138   -0.032923486    0.05480365   
      5000   0.47878535     0.46722973     0.41453582     0.5545905      0.042723268    0.024007031    0.03850841   
      5500   0.33970001     0.30123244     0.32125222     0.39661538     0.030692032    0.012702539   -0.048298098  
      6000   0.43212274     0.43555054     0.49866231     0.36215539    -0.036410857   -0.088716623    0.011361286  
      6500   0.43399968     0.4642578      0.41105251     0.42668873     0.02580582     0.033178607   -0.016095772  
      7000   0.37464365     0.44637325     0.38568297     0.29187472    -0.034248132    0.039899154   -0.00384533   
      7500   0.342293       0.35060411     0.35165343     0.32462146    -0.049295827    0.018996979    0.049145225  
      8000   0.32425224     0.34378968     0.34107424     0.2878928      0.0093811732  -0.079015706   -0.011823558  
      8500   0.41679488     0.38524495     0.34739965     0.51774005     0.10115636     0.012563171   -0.0060940852 
      9000   0.39075299     0.50470463     0.35863372     0.30892061     0.026102106   -0.032123477    0.032904179  
      9500   0.45090457     0.46467775     0.40776838     0.48026757     0.0057945622  -0.044718732    0.022219945  
     10000   0.17656307     0.1516484      0.20745726     0.17058354    -0.012893855   -0.041571938   -0.00086190685
     10500   0.24606371     0.20072927     0.2902837      0.24717817    -0.037571069   -0.0026052279  -0.026022096  
     11000   0.24938671     0.31782066     0.19398371     0.23635576     0.015701038    0.058083686    0.024957667  
     11500   0.29863096     0.31811411     0.27108419     0.30669458    -0.039852394    0.063572526    0.037963721  
     12000   0.3647537      0.35051093     0.44747277     0.2962774     -0.040796742   -0.0029225673  -0.031404924  
     12500   0.21429129     0.14025338     0.26058548     0.24203502     0.059552276   -0.049418999   -0.027644487  
     13000   0.30641145     0.31688177     0.33100989     0.2713427      0.044550404    0.033222634    0.0087045619 
     13500   0.31535144     0.24342537     0.3487983      0.35383066    -0.012197033    0.046478478    0.066800853  
     14000   0.23314251     0.21654365     0.28378701     0.19909686     0.03855569     0.02078179     0.032834496  
     14500   0.33015304     0.30422756     0.34137314     0.34485843     0.0023256955   0.066191428   -0.051356411  
     15000   0.30538446     0.24779191     0.30767839     0.36068309    -0.0012736637   0.017478463    0.067679484  
     15500   0.21475298     0.24058978     0.21184199     0.19182717    -0.0043721563   0.0609386     -0.061650552  
     16000   0.31062733     0.38748733     0.16877913     0.37561553     0.053843058    0.020861477   -0.034978399  
     16500   0.30947947     0.2743346      0.38926817     0.26483564     0.053354298   -0.02317533     0.047606156  
     17000   0.24738111     0.26695006     0.24687789     0.22831537    -0.0068008947   0.0077622677  -0.048801894  
     17500   0.39968476     0.31353384     0.48116129     0.40435916     0.015240552   -0.039765185   -0.0042893342 
     18000   0.31561404     0.30918808     0.23336165     0.40429237     0.0032341224  -0.014268452   -0.061171611  
     18500   0.31610885     0.39636198     0.30586942     0.24609515     0.0039625898   0.1055919      0.020604366  
     19000   0.33473938     0.37606348     0.3025358      0.32561885    -0.048909066    0.045682576   -0.06868438   
     19500   0.24815316     0.30050026     0.27235908     0.17160014     0.0084115017   0.013678904   -0.15197598   
     20000   0.3020269      0.31930074     0.27872485     0.30805512     0.099575406    0.049272154    0.045533526  
     20500   0.34758151     0.3864107      0.26158337     0.39475046     0.066747955   -0.045999141   -0.021050501  
     21000   0.220343       0.3110206      0.20033648     0.14967193     0.050586812    0.070936952    0.05932653   
     21500   0.24831379     0.28841211     0.24328169     0.21324758     0.048071175   -0.0089171186  -0.066943243  
     22000   0.27622601     0.28939988     0.29219719     0.24708094     0.023416685   -0.05209962     0.0047382561 
     22500   0.24645672     0.16345546     0.2094719      0.36644281     0.013365158   -0.0067353337   0.026540344  
     23000   0.36282057     0.41578616     0.29485978     0.37781575    -0.010415232   -0.059933877   -0.053291714  
     23500   0.30099157     0.21118488     0.27496275     0.41682706     0.032259228   -0.011019215    0.087681201  
     24000   0.323997       0.35875456     0.28624114     0.3269953      0.024059844   -0.059974968    0.043883829  
     24500   0.22135838     0.16111426     0.18027383     0.32268704    -0.039920716   -0.033411664   -0.013256645  
     25000   0.265928       0.30114147     0.2638663      0.23277623    -0.044644138   -0.0034741293   0.038129775  
     25500   0.26810193     0.33797524     0.24298044     0.2233501      0.014262976    0.030281315   -0.11077838   
     26000   0.14007814     0.15160109     0.20890444     0.059728898   -0.045467004    0.074074561    0.016662546  
     26500   0.30644377     0.42483812     0.28097465     0.21351853    -0.049281924   -0.13226376     0.01177564   
     27000   0.27793749     0.27388817     0.25618652     0.30373776    -0.01691257     0.09138746     0.017518747  
     27500   0.24483528     0.20900151     0.28522331     0.24028102     0.027711471    0.061759586   -0.055665644  
     28000   0.24481744     0.26316479     0.17398947     0.29729804    -0.0033041895   0.047328524   -0.04113907   
     28500   0.2354013      0.17460613     0.29912052     0.23247726     0.033656853    0.050581711    0.035888472  
     29000   0.3375165      0.3777952      0.32945228     0.30530202    -0.087587505    0.069890797   -0.12397356   
     29500   0.22343195     0.23995923     0.21264226     0.21769436    -0.022655764    0.0010452909  -0.08188484   
     30000   0.31625825     0.33584042     0.28027597     0.33265837     0.043960508    0.054486393    0.0060485219 
     30500   0.30942969     0.26031111     0.31962931     0.34834864    -0.027446478    0.032928734    0.10307555   
     31000   0.24822227     0.24209962     0.2311945      0.27137268     0.043108275   -0.0088850126  -0.030734177  
     31500   0.23910594     0.18066974     0.23286675     0.30378133     0.011114023    0.096071232   -0.015975876  
     32000   0.30503378     0.29973839     0.32362442     0.29173852     0.039923781   -0.010482046    0.034826462  
     32500   0.24768057     0.21588886     0.28641898     0.24073389    -0.048332495   -0.012905592    0.018215904  
     33000   0.2599479      0.26189571     0.21042028     0.30752771     0.036898654   -0.0041917552   0.0032327529 
     33500   0.22817322     0.28760372     0.23282678     0.16408916     0.020902031    0.03743984    -0.053382895  
     34000   0.28827547     0.24827238     0.34952931     0.26702474    -0.042930796   -0.057521936   -0.018581773  
     34500   0.30966043     0.39848713     0.20638468     0.32410947    -0.075380851   -0.065429076   -0.044700852  
     35000   0.22019967     0.18265517     0.23623901     0.24170483    -0.048999573    0.038378089    0.022706068  
     35500   0.26197868     0.29135619     0.28773318     0.20684667     0.0065955648  -0.031133276   -0.0026321692 
     36000   0.34791803     0.22179492     0.49535259     0.32660658    -0.056965641   -0.099594461   -0.026908215  
     36500   0.26476264     0.31273079     0.23119368     0.25036346    -0.06570526     0.021804419    0.012191481  
     37000   0.1999372      0.17792731     0.2380188      0.18386551    -0.050543526   -0.017554352   -0.017995534  
     37500   0.23302442     0.26002116     0.13478158     0.30427052    -0.044936857   -0.044041323    0.032868203  
     38000   0.26858593     0.31773969     0.22602265     0.26199544    -0.030076007    0.017991631    0.01016676   
     38500   0.35268344     0.39117915     0.31255049     0.3543207      0.031504863   -0.054374068   -0.078530127  
     39000   0.34231137     0.36133997     0.36329839     0.30229576     0.050283131   -0.007005414   -0.072941425  
     39500   0.19202517     0.20358378     0.23550678     0.13698496     0.056611482    0.072611776   -0.012964466  
     40000   0.15794335     0.055100668    0.19797744     0.22075193     0.013682585   -0.020627161    0.020448707  
     40500   0.2867296      0.26649167     0.27432405     0.31937307    -0.0054543518  -0.03318469     0.094854186  
     41000   0.19518463     0.2123833      0.1555622      0.21760839     0.03114095     0.049435012    0.00013658396
     41500   0.31261578     0.34195818     0.3348095      0.26107966     0.054876624   -0.051199987   -0.011349305  
     42000   0.2337639      0.26645801     0.24979214     0.18504157    -0.021555503    0.028444828   -0.0241913    
     42500   0.30545456     0.24446769     0.28252473     0.38937127    -0.031090541   -0.022034771   -0.0042220554 
     43000   0.28210977     0.35608875     0.27229936     0.21794119    -0.0035837812   0.007770227   -0.039023236  
     43500   0.27242619     0.23587676     0.22724474     0.35415706    -0.040024504    0.0067728835  -0.020068614  
     44000   0.30475627     0.32697064     0.31146202     0.27583615    -0.044312741   -0.018610475   -0.076707171  
     44500   0.24990355     0.23405946     0.28158289     0.23406831    -0.08442278    -0.020198958   -0.043442898  
     45000   0.29085832     0.21034157     0.24705467     0.41517872    -0.030014269   -0.06127567     0.039848613  
     45500   0.22575836     0.2976976      0.28736449     0.092212995   -0.040502006    0.036625257    0.041848462  
     46000   0.33909741     0.27070224     0.33044016     0.41614985    -0.080054054    0.035215182   -0.10675794   
     46500   0.24622741     0.21789488     0.27132691     0.24946045    -0.028086179    2.4145814e-05 -0.10638169   
     47000   0.29201489     0.30423322     0.31434577     0.25746568     0.0053476351   0.028509597   -0.013551651  
     47500   0.19857445     0.2071738      0.25928284     0.12926673    -0.038827437   -0.0036964468   0.06059728   
     48000   0.17671313     0.1452801      0.15055779     0.23430149    -0.025502335    0.015163103   -0.01237532   
     48500   0.26663533     0.26097202     0.25344947     0.2854845     -0.0093242983  -0.0037315368  -0.0013664141 
     49000   0.23685292     0.2218367      0.2384434      0.25027865     0.02173897     0.092252423    0.029704099  
     49500   0.35985056     0.33021318     0.36636747     0.38297104     0.033153417   -0.0315832     -0.058178028  
     50000   0.22643051     0.28020011     0.16083889     0.23825254     0.038123361   -0.068973611    0.070194049  
     50500   0.23939431     0.28237504     0.23360788     0.20220002     0.032060428    0.0012091885  -0.0003939098 
     51000   0.26828799     0.25619424     0.25880576     0.28986399    -0.038444848   -0.011574104   -0.065780769  
     51500   0.24262795     0.20533624     0.24479321     0.27775441    -0.09023581    -0.014735423    0.0062795919 
     52000   0.24597472     0.27882812     0.20835442     0.25074163    -0.038295835   -0.0099294087  -0.045939247  
     52500   0.23275299     0.27777902     0.22071122     0.19976872     0.066051994   -0.032577305   -0.068231414  
     53000   0.3150946      0.2026676      0.37423616     0.36838002     0.01486122    -0.0089240207   0.057821464  
     53500   0.23768384     0.19882867     0.24404477     0.27017807     0.037672311    0.060663093    0.045519114  
     54000   0.24298472     0.18463484     0.28121465     0.26310468     0.032093004    0.061024044   -0.022620619  
     54500   0.26194001     0.26803361     0.18374493     0.33404149     0.10119882    -0.0019510654   0.019571056  
     55000   0.17571519     0.21138389     0.18593117     0.12983052    -0.08535322     0.039277794   -0.0046579564 
     55500   0.13818092     0.11608746     0.11597314     0.18248217     0.0534139     -0.017265937   -0.05721262   
     56000   0.35370061     0.31327601     0.3940583      0.35376751    -0.054661969   -0.019344799    0.03074618   
     56500   0.3371133      0.33326261     0.31606541     0.36201188     0.030673608    0.061677898    0.012952614  
     57000   0.34576494     0.38652541     0.31523651     0.33553291    -0.042473075    0.022267489   -0.045063579  
     57500   0.31267041     0.27337889     0.22679227     0.43784006    -0.081318748    0.01760509     0.027999705  
     58000   0.28726306     0.14190349     0.4827591      0.23712661     0.064391331   -0.020542141   -0.04051345   
     58500   0.34235802     0.31200948     0.38479287     0.33027171     0.07501911     0.0034555776  -0.019505984  
     59000   0.35127734     0.42595203     0.31098374     0.31689625     0.040761659    0.0088588893  -0.029652705  
     59500   0.24535264     0.15914107     0.25793791     0.31897896    -0.0362716     -0.10645729    -0.0096260636 
     60000   0.26775354     0.26896314     0.27190112     0.26239636    -0.047098131   -0.026277925   -0.0055205398 
     60500   0.29340914     0.27178571     0.32595727     0.28248445    -0.036180931   -0.0035744184  -0.056366408  
     61000   0.30975765     0.29211052     0.27454212     0.3626203      0.070457956   -0.0091943381  -0.09070378   
     61500   0.31076154     0.35945487     0.26751177     0.30531797     0.025510048   -0.015734877    0.0022012997 
     62000   0.22366622     0.31109478     0.18527502     0.17462884    -0.012323081   -0.075342685    0.077829745  
     62500   0.29205645     0.31314259     0.33489327     0.2281335     -0.068592068   -0.045912777    0.047326182  
     63000   0.17475173     0.20868971     0.18951106     0.12605442     0.0087885911   0.0035403862   0.0073370158 
     63500   0.23044048     0.34065841     0.23881846     0.11184457     0.093825831   -0.036594947   -0.036147695  
     64000   0.34225347     0.36329127     0.27836717     0.38510197    -0.009176571   -0.07709679     0.041242267  
     64500   0.24212483     0.33385069     0.19065358     0.20187021     0.034185238    0.0079402048   0.022840757  
     65000   0.32598473     0.33612045     0.29567954     0.34615419    -0.064383725    0.078271654   -0.010363244  
     65500   0.23800617     0.28761679     0.22444453     0.20195718    -0.0058840946   0.046947904    0.085037311  
     66000   0.26208834     0.27140878     0.20268219     0.31217403     0.046485722   -0.052023373   -0.0021529245 
     66500   0.28871874     0.37620732     0.3299592      0.1599897      0.038282523    0.051665819   -0.0072253467 
     67000   0.23588554     0.19339273     0.2735432      0.24072069     0.058500313    0.019610354    0.045915074  
     67500   0.31751693     0.21319547     0.30177512     0.43758021     9.898467e-05   0.0049759984  -0.0076955243 
     68000   0.26663377     0.32613061     0.30796152     0.16580917    -0.005127589   -0.0067509312   0.045102668  
     68500   0.23681958     0.33190468     0.16778655     0.2107675     -0.07111691    -0.035525517    0.090010025  
     69000   0.29098978     0.25990773     0.28124031     0.3318213      3.896739e-05  -0.13932317    -0.03777796   
     69500   0.20840515     0.22220991     0.17289758     0.23010797     0.010458265   -0.042350982    0.017620129  
     70000   0.13095403     0.16309535     0.090843254    0.13892349     0.063404619    0.084875607    0.010088575  
     70500   0.37230226     0.43698076     0.34003659     0.33988943    -0.050425139   -0.021727124   -0.031506264  
     71000   0.3521285      0.50669482     0.25335278     0.29633791    -0.06221957     0.031252833   -0.0051052785 
     71500   0.27819949     0.34068217     0.25470254     0.23921376    -0.0025984314  -0.081920567    0.050846188  
     72000   0.1494781      0.16083444     0.18641252     0.10118734     0.015477957    0.018014971    0.003147988  
     72500   0.33422276     0.33179797     0.34639869     0.32447161     0.006496334   -0.084478162   -0.062605503  
     73000   0.35246076     0.2829428      0.38865468     0.38578481     0.0007835898   0.12626792    -0.026390616  
     73500   0.28325676     0.29899452     0.18903581     0.36173995     0.073402231   -0.065386107   -0.0070838608 
     74000   0.34642232     0.30980214     0.35171501     0.37774979     0.024094043   -0.019579784    0.0020935179 
     74500   0.28517921     0.33621188     0.19560225     0.32372351     0.034573563    0.041706547   -0.033194069  
     75000   0.26086321     0.24591737     0.28806129     0.24861095     0.05906474    -0.033845561   -0.017935436  
     75500   0.41075184     0.43381431     0.38189341     0.41654778    -0.028879457   -0.0094507174  -0.0025984692 
     76000   0.25980877     0.22410335     0.21695387     0.33836908     0.10446168    -0.047300542    0.01675124   
     76500   0.2558461      0.26917223     0.29897762     0.19938845     0.041106928   -0.030660704    0.042588008  
     77000   0.24187741     0.23129219     0.2966865      0.19765353     0.06284541     0.077147403   -0.064144715  
     77500   0.19804073     0.19195375     0.20986198     0.19230646     0.035265927   -0.039230839   -0.016450188  
     78000   0.2703284      0.26377057     0.27958941     0.26762522     0.010540537    0.068981724   -0.07348808   
     78500   0.23797493     0.23761636     0.2292165      0.24709192    -0.0091432783  -0.020128848    0.025813255  
     79000   0.16237957     0.10645935     0.22318679     0.15749256    -0.023036228    0.019411801    0.028987149  
     79500   0.36166937     0.35849644     0.32184888     0.40466278    -0.010438632   -0.028808193   -0.15360534   
     80000   0.26818333     0.32380317     0.22545649     0.25529033    -0.048479173    0.046955081   -0.012290261  
     80500   0.36447461     0.4857387      0.26515033     0.34253481    -0.0020856827  -0.072801392    0.060148843  
     81000   0.30280869     0.26398497     0.29536375     0.34907734     0.0060133393  -0.031338703   -0.0011149627 
     81500   0.27879886     0.27998326     0.29414954     0.26226378     0.063386171    0.020265955    0.042594902  
     82000   0.2363874      0.29245373     0.26600392     0.15070455     0.038285261   -0.052334823   -0.040806587  
     82500   0.26875076     0.27496683     0.24400196     0.28728348    -0.081559202   -0.029324665    0.011149908  
     83000   0.33400352     0.39977567     0.28202643     0.32020848    -0.076732639   -0.037425059    0.024689114  
     83500   0.31871235     0.33853387     0.25155454     0.36604865    -0.006300823    0.015252134   -0.016071005  
     84000   0.23797144     0.21283537     0.23503053     0.26604844    -0.063679367    0.047790994    0.011285465  
     84500   0.29602073     0.27034025     0.34833651     0.26938544     0.044556156    0.047351712    0.010914104  
     85000   0.17892333     0.23261021     0.1875232      0.11663658     0.087821018    0.02188714     0.04256502   
     85500   0.25905133     0.23026078     0.24811498     0.29877821    -0.021759449   -0.089280977   -0.04430633   
     86000   0.40816323     0.42349962     0.38534535     0.41564472    -0.019842305   -0.015685332   -0.038671504  
     86500   0.26524048     0.23584401     0.28165453     0.27822292     0.019646095   -0.065119368   -0.014274942  
     87000   0.32165074     0.33663975     0.29291399     0.33539849    -0.039176547   -0.010360377    0.0044167052 
     87500   0.2198393      0.19874711     0.20903914     0.25173164     0.062381041   -0.059672326   -0.034930386  
     88000   0.26126765     0.20869607     0.20126975     0.37383714    -0.0030089775  -0.070761257   -0.081961103  
     88500   0.24203263     0.2413569      0.19468957     0.29005142     0.010690723    0.054355779    0.0074842607 
     89000   0.28373704     0.24118103     0.28818749     0.3218426     -0.017427898    0.075022231    0.053516008  
     89500   0.24395755     0.24851338     0.23156698     0.2517923     -0.0019709942  -0.028218363   -0.034493027  
     90000   0.29114569     0.25495127     0.28206249     0.33642332    -0.090811559    0.038705197    0.018553004  
     90500   0.25737846     0.27936193     0.19450191     0.29827153     0.069417133   -0.023316745    0.012792443  
     91000   0.28078956     0.28868291     0.238724       0.31496176     0.023632855   -0.028508538   -0.075325865  
     91500   0.24859512     0.24772977     0.23638181     0.26167379    -0.035551382    0.090934746   -0.0098462657 
     92000   0.24979938     0.31394303     0.21923633     0.21621876     0.086154603    0.04023881    -0.017896821  
     92500   0.33463776     0.33800016     0.33581967     0.33009344     0.01775222    -0.04606891     0.020218576  
     93000   0.32270403     0.26674956     0.33412492     0.36723762    -0.039700969   -0.019123961   -0.016576087  
     93500   0.20633353     0.18914597     0.089809667    0.34004494    -0.0059667231  -0.033748901   -0.01211724   
     94000   0.32505566     0.2306156      0.39939605     0.34515533     0.089165883    0.066983102    0.016158278  
     94500   0.41584502     0.32082749     0.44438209     0.4823255      0.038082989    0.0053728718  -0.062530825  
     95000   0.21115776     0.16576817     0.23300699     0.23469811     0.01274989     0.01086269    -0.029076782  
     95500   0.289079       0.33380017     0.25403942     0.2793974     -0.032350802    0.015631674   -0.0078832234 
     96000   0.35450209     0.40456106     0.32337464     0.33557056    -0.035487623   -0.017431278    0.022318331  
     96500   0.26680347     0.27276777     0.18297962     0.34466303    -0.019870216   -0.042246887    0.0053524665 
     97000   0.37072477     0.38751395     0.40253009     0.32213027    -0.098272946   -0.019924409    0.051972435  
     97500   0.37554854     0.41387144     0.38500771     0.32776647    -0.028553511   -0.02716853    -0.022969864  
     98000   0.30639301     0.21216425     0.36135574     0.34565904    -0.062434259    0.054364199   -0.00032626245
     98500   0.28779069     0.27837389     0.23135682     0.35364135    -0.020817869   -0.021270292    0.044293353  
     99000   0.29542893     0.22101243     0.31235019     0.35292416    -0.041232624   -0.056483171    0.0035180631 
     99500   0.19835257     0.16474348     0.19343401     0.23688022    -0.082840502    0.0013832939  -0.0080596361 
    100000   0.28285352     0.17232512     0.30603519     0.37020024    -0.014422517   -0.020589624    0.047397362  
    100500   0.27932541     0.36126825     0.26322666     0.21348134    -0.0086377578  -0.048433627   -0.047288664  
    101000   0.25150788     0.22829375     0.23437912     0.29185075     0.02316403    -0.076686543    0.053236187  
    101500   0.30605662     0.31722372     0.18617651     0.41476964     0.083641489    0.030502569   -0.019501891  
    102000   0.29913726     0.2538947      0.35008541     0.29343166    -0.033770332    0.00060052314 -0.086811974  
    102500   0.19068872     0.16026498     0.12847711     0.28332407    -0.010506655   -0.035801116   -0.032749277  
    103000   0.31651672     0.2763324      0.37656207     0.2966557     -0.038993821    0.016573753    0.050928061  
    103500   0.19011937     0.18797771     0.22737882     0.15500158    -0.02512288    -0.072580864   -0.027789314  
    104000   0.19866021     0.14555588     0.25529468     0.19513007     0.0030344041  -0.011379463    0.012579696  
    104500   0.3886403      0.39454985     0.42156736     0.3498037     -0.032421439   -0.034211187    0.03050857   
    105000   0.29870977     0.29138693     0.25409378     0.3506486      0.042926134    0.051392338    0.042724698  
    105500   0.30668027     0.32207717     0.28972395     0.3082397     -0.018322766    0.018807845   -0.025139211  
    106000   0.27372305     0.24945344     0.27807825     0.29363746     0.015141074    0.024541655    0.056478455  
    106500   0.21805154     0.25632138     0.2370514      0.16078185     0.080164857   -0.0066537064  -0.05891085   
    107000   0.28650747     0.32850785     0.1959822      0.33503234    -0.01646918    -0.019265244   -0.068035869  
    107500   0.30472559     0.32983858     0.22625073     0.35808746    -0.037957651   -0.098902332    0.043208299  
    108000   0.26961378     0.25609872     0.26443778     0.28830485    -0.049160109   -0.038399083    0.0085213702 
    108500   0.29711328     0.25211427     0.28533518     0.3538904     -0.026117291   -0.073024869   -0.04347274   
    109000   0.27887135     0.30456749     0.31407309     0.21797346    -0.0419425      0.055423301    0.014648522  
    109500   0.34229485     0.34519026     0.34550267     0.33619162    -0.0012167185  -0.042152508   -0.052624964  
    110000   0.39227987     0.34888857     0.34711815     0.4808329      0.052937797   -0.03510893     0.0040074573 
    110500   0.33540882     0.30020109     0.34048907     0.3655363     -0.018958678    0.027767835    0.024590657  
    111000   0.27245055     0.28513604     0.18729134     0.34492428    -0.0064182575  -0.035094011   -0.058159181  
    111500   0.25676274     0.27235242     0.26890687     0.22902894    -0.091481879   -0.016709518    0.089590817  
    112000   0.20034059     0.18821011     0.14613327     0.26667839     0.038230053   -0.049729561   -0.049971934  
    112500   0.19184904     0.16473513     0.15749499     0.253317      -0.0031477054  -0.0037617029   0.011755448  
    113000   0.2511067      0.23361095     0.23632654     0.28338262     0.034457066   -0.016442042   -0.034665031  
    113500   0.26983204     0.19247215     0.26929391     0.34773006    -0.043028718    0.044604293    0.078402614  
    114000   0.39449418     0.31835628     0.47074791     0.39437836     0.036936263   -0.043850179   -0.021495654  
    114500   0.19811818     0.2001202      0.23714953     0.15708482     0.021312779   -0.019737677    0.077751381  
    115000   0.29557336     0.23568401     0.31390954     0.33712654     0.015563962    0.0013364572  -0.0024365759 
    115500   0.20872568     0.23525066     0.23993482     0.15099155    -0.015288375   -0.045095285   -0.012373022  
    116000   0.27938936     0.32585765     0.30882341     0.20348703    -0.0091513023   0.022205411   -0.0055897401 
    116500   0.32868023     0.39020539     0.29898713     0.29684816     0.090854948   -0.016310733    0.022781088  
    117000   0.35130312     0.31673017     0.38707312     0.35010608     0.026734111   -0.042132001    0.027441038  
    117500   0.23530711     0.28160924     0.23780349     0.1865086      0.0080411535   0.062478726    0.0007279704 
    118000   0.30919592     0.23211469     0.37802158     0.31745147     0.012959856    0.017000096   -0.10331782   
    118500   0.2742018      0.2688423      0.29675098     0.25701212     0.069830417    0.013612612    0.03680007   
    119000   0.20855277     0.10880982     0.31040412     0.20644437     0.023479581    0.046921142    0.025704548  
    119500   0.28446055     0.3084617      0.32895918     0.21596077    -0.068102676   -0.016986642    0.048220391  
    120000   0.26218253     0.2364351      0.31451804     0.23559445     0.034974165   -0.010099744    0.073008415  
    120500   0.34361337     0.30040639     0.35823559     0.37219814     0.045759219   -0.032644748    0.057782917  
    121000   0.34799207     0.31636622     0.3746713      0.35293869    -0.051528214   -0.035056657   -0.0087367729 
    121500   0.31491539     0.33455638     0.32842564     0.28176415    -0.031734199   -0.0022489386  -0.11197375   
    122000   0.22721392     0.15342637     0.30968292     0.21853246    -0.038538354    0.011896738    0.031055333  
    122500   0.33944071     0.39433501     0.33618541     0.2878017     -0.021343933   -0.031350174   -0.051066717  
    123000   0.26868896     0.32370986     0.27353729     0.20881973    -0.021608278    0.017007123    0.055128194  
    123500   0.21003879     0.36903385     0.072763335    0.18831918     0.027378684    0.013942729    0.011277849  
    124000   0.35609037     0.36327052     0.25410974     0.45089086    -0.010528538    0.063834264   -0.063424288  
    124500   0.2027434      0.20924795     0.19003184     0.20895042    -0.017377764   -0.033386917    0.041130199  
    125000   0.22390014     0.21133931     0.19312052     0.26724058    -0.050923251    0.092338343    0.029479706  
    125500   0.24862644     0.24877846     0.33718745     0.15991341    -0.070934076   -0.037448348    0.010951123  
    126000   0.21294577     0.26458006     0.19434845     0.17990879    -0.016085685   -0.037371211    0.0054181107 
    126500   0.32651433     0.28144169     0.20547944     0.49262185    -0.012023683   -0.03854896    -0.053231834  
    127000   0.22703479     0.16266718     0.20524955     0.31318763    -0.073554945   -0.079935872   -0.012851508  
    127500   0.25746129     0.26802074     0.20230578     0.30205735     0.030339221   -0.066695134   -0.018808048  
    128000   0.18590506     0.18577415     0.19590605     0.17603496     0.044593786    0.064281819    0.012567863  
    128500   0.27738155     0.25098339     0.3058089      0.27535236     0.022042656   -0.01629011     0.021910331  
    129000   0.21876005     0.25378589     0.17624246     0.2262518     -0.041180926   -0.026900059   -0.022736003  
    129500   0.34747874     0.17593692     0.38577404     0.48072528    -0.061141393   -0.032441208    0.059421504  
    130000   0.2739464      0.29905311     0.24104976     0.28173633    -0.0026348359  -0.020462305    0.0094198961 
    130500   0.3080253      0.2415674      0.3432806      0.33922792    -0.0029745436  -0.027679619    0.00033202103
    131000   0.31512759     0.38040495     0.27867577     0.28630205     0.072167139   -0.050468924   -0.057604189  
    131500   0.22808305     0.079253725    0.38421666     0.22077878     0.031820724   -0.077085276   -0.027986741  
    132000   0.36666815     0.35411518     0.36180273     0.38408656     0.055630011   -0.039622152   -0.027860124  
    132500   0.37392936     0.47487323     0.24675755     0.40015728    -0.044521999    0.064673658    0.10494789   
    133000   0.27849912     0.20341402     0.29002989     0.34205344     0.027097411    0.017571611   -0.084348158  
    133500   0.31148185     0.23516281     0.29822452     0.40105822    -0.010122592    0.047832456    0.024082877  
    134000   0.35786873     0.34593175     0.32913795     0.39853648    -0.036925912   -0.071922231   -0.029940521  
    134500   0.3046864      0.28414242     0.24801101     0.38190578     0.036321006    0.008020192    0.024712731  
    135000   0.25077415     0.26324928     0.21806506     0.27100812    -0.059124849   -0.0024237034   0.042466429  
    135500   0.16133974     0.21193225     0.022043239    0.25004373     0.025004137    0.052390136   -0.034534361  
    136000   0.24139344     0.1613987      0.28463278     0.27814884     0.014752531    0.0043065981   0.042531083  
    136500   0.3034164      0.22294201     0.33226766     0.35503952     0.0040672419  -0.059415531   -0.030997303  
    137000   0.29122608     0.3023095      0.23712559     0.33424315     0.029504076    0.0060704386   0.0031307612 
    137500   0.25917525     0.27902367     0.21547169     0.28303038     0.03115427     0.019947398   -0.033746649  
    138000   0.30676833     0.33172138     0.2783242      0.31025941     0.011817951   -0.025619684    0.0075994679 
    138500   0.21849017     0.29557335     0.13262625     0.22727091     0.020839912    0.028160722    0.039449909  
    139000   0.26967269     0.1934416      0.25507243     0.36050404    -0.00073129485 -0.050228014    0.077455973  
    139500   0.20337831     0.20420265     0.18605763     0.21987466     0.014444414    0.05472206     0.060048523  
    140000   0.24372505     0.26248536     0.2758458      0.192844       0.085102941   -0.088515941   -0.063182775  
    140500   0.29296787     0.23259889     0.20049521     0.4458095      0.013981497    0.043876147    0.051664324  
    141000   0.29225136     0.23692538     0.41445329     0.22537541     0.027750706   -0.057377151   -0.043393372  
    141500   0.20642982     0.20485544     0.15670234     0.25773167    -0.0091374079  -0.028463828   -0.019974826  
    142000   0.32773468     0.35086692     0.29627388     0.33606324    -0.044017132    0.031266899    0.0017786829 
    142500   0.28736071     0.37812082     0.24676427     0.23719703    -0.05674489    -0.00070363403 -0.049703414  
    143000   0.26167411     0.18190611     0.29082452     0.31229171     0.001651689    0.0023381309  -0.024258575  
    143500   0.33681912     0.40754367     0.31641078     0.2865029      0.0047076454  -0.081466999   -0.024905861  
    144000   0.25791985     0.23684953     0.33074467     0.20616533    -0.032093666   -0.072826646    0.011945683  
    144500   0.22029662     0.15634803     0.2435332      0.26100864     0.016469428   -0.041244121   -0.07318012   
    145000   0.20806003     0.18770148     0.25180384     0.18467476     0.027785301    0.061981985    0.086476439  
    145500   0.33615765     0.40054076     0.29603662     0.31189556     0.010919443    0.02219186    -0.0068597791 
    146000   0.33673461     0.32611762     0.33532165     0.34876458     0.077757645   -0.056634067    0.067009148  
    146500   0.28608299     0.22846724     0.36751028     0.26227144    -0.097904761    0.03704628     0.00039190733
    147000   0.30571542     0.31095302     0.39803737     0.20815586    -0.046278676    0.077061643   -0.004826474  
    147500   0.21881128     0.25840167     0.16725088     0.23078129     0.0044538831   0.032328655   -0.014470805  
    148000   0.31978023     0.31346347     0.19435486     0.45152237     0.069790396    0.02934709     0.0013156078 
    148500   0.27930764     0.2158829      0.35779735     0.26424267    -0.014314754   -0.060280584   -0.061948043  
    149000   0.15036392     0.22557528     0.13698783     0.088528665   -0.060466342   -0.00399936    -0.057021513  
    149500   0.36117302     0.31710169     0.45039122     0.31602616     0.063504152   -0.028720684   -0.017041326  
    150000   0.29994461     0.22948206     0.32315147     0.34720032     0.042357276    0.032091215   -0.0050891048 
    150500   0.23656812     0.28272693     0.20499342     0.22198401    -0.015535954    0.060431741    0.0087284338 
    151000   0.2321284      0.24625485     0.18359442     0.26653593     0.037929707    0.037609022    0.11686756   
    151500   0.3242608      0.37527843     0.32328436     0.2742196     -0.012544636    0.024779946    0.028048604  
    152000   0.26027066     0.22175345     0.21985598     0.33920254     0.04814495     0.025842176    0.016829789  
    152500   0.37963433     0.27501216     0.38650341     0.47738743     0.025827279    0.080096982    0.11287539   
    153000   0.27628736     0.25986282     0.27911        0.28988927    -0.021885553    0.056373858   -0.013161892  
    153500   0.22360949     0.20908903     0.26284484     0.1988946     -0.00049926703 -0.011346072    0.041535648  
    154000   0.22909445     0.28225375     0.1827202      0.22230939    -0.0014779326  -0.00090895361 -0.097699249  
    154500   0.26700664     0.2790739      0.25780314     0.26414287    -0.025012186    0.10026884    -0.048170722  
    155000   0.31557529     0.37338673     0.33523872     0.23810041     0.026831008    0.034018738   -0.035468347  
    155500   0.32474787     0.35404138     0.30352376     0.31667846    -0.071233721    0.011851629   -0.047508067  
    156000   0.23071919     0.21631625     0.24764034     0.22820099    -8.0976561e-05 -0.0059783249   0.03979368   
    156500   0.25810349     0.31558134     0.19500004     0.26372908     0.015708477   -0.011783871    0.081632641  
    157000   0.24807021     0.26241083     0.1754362      0.3063636      0.06175293     0.078484211   -0.041117804  
    157500   0.28616068     0.30409469     0.32689397     0.22749337     0.0056438161   0.095224527   -0.047301785  
    158000   0.34242044     0.32199137     0.32716157     0.37810839     0.017203585    0.02742614     0.031610999  
    158500   0.30174002     0.31533461     0.30587526     0.28401018    -0.046569488    0.015437363   -0.0061669035 
    159000   0.20560906     0.26237468     0.1172367      0.23721579     0.056391629    0.090419633   -0.064342578  
    159500   0.18752299     0.095325191    0.26728523     0.19995856    -0.052056429    0.0077449575   0.083595005  
    160000   0.255382       0.22450797     0.25420372     0.2874343     -0.015061505   -0.037764938    0.049877207  
    160500   0.19685205     0.14468284     0.19423027     0.25164303    -0.019343818    0.014670975    0.064269117  
    161000   0.2108075      0.18495107     0.14348365     0.30398777    -0.01451586     0.10559919    -0.032094844  
    161500   0.43211362     0.3355727      0.49008786     0.4706803     -0.025229512    0.020271711   -0.022773952  
    162000   0.18787826     0.22360885     0.19144581     0.14858011     0.045646904    0.010156071    0.028387099  
    162500   0.19401796     0.14312497     0.12760292     0.31132599    -0.078816666   -0.01892279     0.027108426  
    163000   0.27681501     0.27821943     0.28054519     0.27168041    -0.030215709    0.026374841    0.075211073  
    163500   0.30658566     0.18463509     0.3438627      0.39125918     0.0128011      0.029412593   -0.039909347  
    164000   0.31928008     0.32343178     0.23701864     0.39738983     0.058647572   -0.0089451222  -0.020908743  
    164500   0.42277908     0.40973564     0.42835131     0.4302503     -0.018779268   -0.0003204696  -0.013633077  
    165000   0.35789958     0.36463236     0.33996197     0.36910441    -0.046285605   -0.12296004     0.025099376  
    165500   0.35278353     0.38199704     0.31396542     0.36238813     0.035875177   -0.011449084   -0.0095261098 
    166000   0.2047016      0.16865313     0.19707327     0.2483784      0.016443473    0.047281137   -0.024264959  
    166500   0.38977298     0.34760544     0.43534426     0.38636923    -0.064421053   -0.070004825    0.078886069  
    167000   0.29266707     0.15421686     0.33027701     0.39350733    -0.039681204   -0.053774463    0.038281412  
    167500   0.30144877     0.20614058     0.32383233     0.37437338    -0.022819478   -0.091451587    0.019005901  
    168000   0.3119376      0.35671453     0.25133054     0.32776774    -0.021761971    0.0056249388  -0.052571545  
    168500   0.25887414     0.25032734     0.23829102     0.28800407    -0.0111469     -0.015886124    0.075479629  
    169000   0.27805311     0.2436814      0.29485541     0.2956225     -0.0078696706   0.0098766083   0.025593124  
    169500   0.2469818      0.26105632     0.2388603      0.2410288     -0.0018035155  -0.042517208   -0.072121146  
    170000   0.20936643     0.28221492     0.14417336     0.20171102     0.092358725   -0.0052384854  -0.0066341015 
    170500   0.18901581     0.23227874     0.10908876     0.22567993     0.06672358     0.034345504   -0.063902598  
    171000   0.32015936     0.33353351     0.37703665     0.24990792     0.023555743   -0.018993175    0.027051647  
    171500   0.29160616     0.31973965     0.29691853     0.2581603      0.02608756    -0.022417357    0.024549387  
    172000   0.25084634     0.18834491     0.22575157     0.33844254     0.061783887    0.020304389   -0.019726816  
    172500   0.27401158     0.4221702      0.17761236     0.22225218    -0.040807233   -0.016404734   -0.0078782222 
    173000   0.32862823     0.27636512     0.35267941     0.35684017    -0.021024936   -0.00020858625  0.035344119  
    173500   0.36660667     0.44336171     0.280667       0.3757913      0.0090694448  -0.0067159187  -0.056351487  
    174000   0.27798978     0.23042716     0.26923417     0.33430802     0.11060856     0.010581912   -0.029951802  
    174500   0.28803905     0.28971748     0.31839654     0.25600311     0.0089278956   0.034363844    0.03101938   
    175000   0.33138533     0.3682759      0.27201392     0.35386618    -0.034459694    0.072811327   -0.1074981    
    175500   0.27977438     0.21919733     0.38360015     0.23652565    -0.079302089   -0.040397492    0.0039952108 
    176000   0.23994046     0.23119993     0.23612523     0.25249621     0.04405853     0.022414058    0.019918198  
    176500   0.28633458     0.20400694     0.31044773     0.34454908     0.035745443    0.033876273    0.069432869  
    177000   0.34060761     0.31040263     0.33054652     0.38087368    -0.053997984    0.064761074    0.10330033   
    177500   0.19869605     0.16285298     0.22872151     0.20451366     0.009717635   -0.033281275    0.084727976  
    178000   0.30735238     0.28594837     0.29648833     0.33962043     0.054321254   -0.10439429    -0.016083561  
    178500   0.14029441     0.19478493     0.14711038     0.078987918    0.0052056944   0.028469239    0.037349064  
    179000   0.27562148     0.24282028     0.2938168      0.29022736     0.0021782883  -0.040296021    0.057772773  
    179500   0.28594118     0.34990685     0.2682672      0.23964948    -0.030268903   -0.064453943   -0.0066894844 
    180000   0.32529819     0.36511521     0.35223401     0.25854536    -0.036665746   -0.039433292    0.010164159  
    180500   0.29231061     0.30256405     0.34487407     0.22949369     0.00031625676 -0.017016177    0.076050761  
    181000   0.29877992     0.34430223     0.19667015     0.35536738    -0.11289827     0.064541167   -0.0046302175 
    181500   0.27312077     0.1937651      0.30859437     0.31700282    -0.06546947     0.053587012    0.035053619  
    182000   0.3155766      0.33149767     0.27620022     0.3390319      0.05360267    -0.085649064    0.020656174  
    182500   0.27426368     0.2153028      0.26206015     0.34542809    -0.061463484   -0.048806823    0.051135235  
    183000   0.2942581      0.34890522     0.23275936     0.30110971     0.05009394    -0.05169403    -0.07180056   
    183500   0.39064317     0.37898423     0.4262017      0.36674357     0.046592905    0.018044695    0.033824773  
    184000   0.38515244     0.38391767     0.33342866     0.43811099    -0.020008035    7.7054268e-05  0.017293866  
    184500   0.26218913     0.24712405     0.28324092     0.25620241    -0.059435309    0.037904944    0.052052657  
    185000   0.29056401     0.24081085     0.3415955      0.28928568     0.043307136    0.034627794    0.063888425  
    185500   0.22540639     0.15353811     0.21488018     0.30780086     0.0029067077  -0.053623907    0.0037516007 
    186000   0.22875228     0.33407924     0.22537789     0.12679972     0.055834427   -0.011300242    0.018252563  
    186500   0.45077128     0.47141511     0.52283403     0.3580647      0.053826338    0.040119802   -0.024325172  
    187000   0.15566302     0.17450199     0.11659581     0.17589125    -0.0052444098   0.044909733    0.043295167  
    187500   0.26315897     0.19940674     0.31727227     0.27279791     0.019677805   -0.018278487    0.074633792  
    188000   0.33511248     0.34256816     0.3310567      0.33171258     0.033244875    0.0036888267   0.008275449  
    188500   0.24388915     0.22585138     0.17946513     0.32635094    -0.01287687     0.022749066   -0.021589107  
    189000   0.33460559     0.42709081     0.27528917     0.30143679    -0.024449761   -0.020806366   -0.081295959  
    189500   0.26729037     0.3002206      0.3568986      0.14475191     0.099088073    0.013025618    0.061498232  
    190000   0.23138021     0.24706083     0.27406873     0.17301106    -0.012782873   -0.013910707    0.0038865676 
    190500   0.30836124     0.26486541     0.28845749     0.37176082    -0.064416826   -0.024620076    0.013827938  
    191000   0.21084444     0.21389225     0.22496572     0.19367536     0.067996436    0.020369948    0.01589042   
    191500   0.27519849     0.21266669     0.4106775      0.20225128    -0.0093670744  -0.03322702     0.064300796  
    192000   0.28833661     0.31101828     0.22502964     0.32896189    -0.020157663   -0.024856209   -0.056571857  
    192500   0.24083294     0.22016775     0.21456429     0.28776678     0.041432798    0.020608861    0.048157431  
    193000   0.34562398     0.39153863     0.36099717     0.28433614     0.0041212675  -0.029818115   -0.0031202738 
    193500   0.31203898     0.28264485     0.3120177      0.34145439    -0.032210592   -0.030884481    0.0076316572 
    194000   0.29102284     0.35210981     0.18973521     0.33122349    -0.055164003    0.0018662779   0.0018529586 
    194500   0.24038642     0.33202541     0.22063011     0.16850373     0.012448728    0.048330946   -0.058452099  
    195000   0.21054361     0.2043338      0.2136146      0.21368242    -0.00034448647 -0.0070518585  -0.0011356929 
    195500   0.26789972     0.25866556     0.29783915     0.24719446    -0.025846147    0.0081532392   0.01376141   
    196000   0.25891281     0.30839639     0.21542419     0.25291786    -0.0032721494   0.049390105   -0.015924366  
    196500   0.43502864     0.42131921     0.55321944     0.33054727     0.014447366   -0.023244646    0.0070263858 
    197000   0.33717451     0.29356256     0.45478889     0.26317209     0.067197448   -0.028387062   -0.061450007  
    197500   0.32405315     0.30265686     0.37320276     0.29629983     0.028882394    0.037090033    0.052673245  
    198000   0.28753767     0.37105348     0.27044934     0.22111019     0.0074026389   0.016603697   -0.020709556  
    198500   0.16601515     0.17527604     0.16581389     0.15695551     0.024833841   -0.042086017    0.0079490182 
    199000   0.22827614     0.23878398     0.1821342      0.26391024     0.060815935   -0.03888014     0.02476393   
    199500   0.26957915     0.245268       0.31867147     0.24479797     0.01865537    -0.069626296    0.036119696  
    200000   0.20318554     0.24811283     0.19069757     0.17074622    -0.003926831   -0.037325137   -0.015162792  
    200500   0.18351197     0.17961431     0.22386333     0.14705827     0.0019669555   0.05469365    -0.027563213  
    201000   0.29028512     0.23909286     0.33554726     0.29621524     0.088216824   -0.044808757   -0.080894193  
    201500   0.27650066     0.26388412     0.3124685      0.25314934    -0.046227965   -0.022614468   -0.034308947  
    202000   0.31337485     0.30774391     0.37321502     0.25916561    -0.033106418   -0.013413442    0.0085137604 
    202500   0.31105708     0.40523341     0.23298503     0.2949528      0.0016575186   0.015922606    0.093663478  
    203000   0.30096403     0.18242648     0.34556767     0.37489794     0.0875657     -0.036475233    0.047391277  
    203500   0.40383353     0.41226443     0.39397243     0.40526371    -0.02233454    -0.083599205    0.1434984    
    204000   0.19189166     0.24390519     0.16322302     0.16854677    -0.10221725     0.017152406    0.024449685  
    204500   0.28664219     0.3275805      0.31389169     0.21845439     0.066035818    0.1155533      0.081247116  
    205000   0.33496897     0.3362872      0.32984399     0.33877573    -0.010500271   -0.026228074    0.071113822  
    205500   0.27396116     0.32470352     0.24134757     0.25583239    -0.0051061743   0.0046503455   0.025199933  
    206000   0.3509879      0.25648019     0.40439146     0.39209206    -0.046585673    0.019802057    0.051689952  
    206500   0.22334081     0.14293007     0.22272236     0.30437       -0.042457789    0.057932384   -0.010321792  
    207000   0.26328284     0.28724234     0.25246916     0.25013702    -0.053716429   -0.025443435    0.034874135  
    207500   0.24442566     0.29926478     0.19504718     0.23896502    -0.037866615    0.011455054   -0.048084439  
    208000   0.24798234     0.25514119     0.27144232     0.21736351    -0.0017848888   0.0015329236   0.099914505  
    208500   0.28862797     0.23557348     0.32462838     0.30568205    -0.043951795   -0.011066273   -0.0040067384 
    209000   0.31338219     0.27837822     0.35368622     0.30808213    -0.013816609   -0.066554236   -0.047152139  
    209500   0.22636108     0.22647609     0.14501811     0.30758904    -0.015739596   -0.072443086   -0.017621967  
    210000   0.34664253     0.32838056     0.35136512     0.36018192     0.059379644   -0.031801189   -0.042266408  
    210500   0.33880275     0.34151908     0.32357027     0.35131891    -0.030736688    0.00022819053  0.038869666  
    211000   0.29271153     0.29361229     0.17900388     0.40551841    -0.037847129    0.03940089     0.062303183  
    211500   0.23091337     0.17877089     0.20278196     0.31118727     0.037739481    0.0039236092  -0.038776233  
    212000   0.29127344     0.27506859     0.24964051     0.3491112      0.026605664   -0.0016306056   0.024848832  
    212500   0.3603806      0.443958       0.27050857     0.36667525     0.014324249   -0.06214588     0.083700004  
    213000   0.30646462     0.29064006     0.26117508     0.36757873    -0.040133091    0.062868006   -0.037008487  
    213500   0.23014928     0.13250168     0.32826657     0.22967959     0.01825739    -0.022387773   -0.02881129   
    214000   0.20138056     0.19518595     0.14500389     0.26395185     0.013562061    0.025083806    0.026403063  
    214500   0.19861808     0.15749356     0.10694498     0.33141572     0.073159346   -0.020745025   -0.039430263  
    215000   0.36028393     0.29946078     0.33271305     0.44867794     0.025598147    0.048221704    0.072533927  
    215500   0.43973933     0.37286021     0.50228109     0.4440767     -0.12481595     0.079642142   -0.0060330949 
    216000   0.27545486     0.36550969     0.2520756      0.20877929     0.0069997821  -0.05804839     0.047874393  
    216500   0.35498539     0.42068998     0.32287547     0.32139073     0.00089421654 -0.066747492    0.055070964  
    217000   0.19936482     0.23464393     0.20812873     0.15532179    -0.0057272606  -0.027429013   -3.9028153e-05
    217500   0.42701483     0.36493836     0.44964635     0.46645979    -0.028010886    0.0031603484  -0.090686096  
    218000   0.29262375     0.34262297     0.27514779     0.26010049     0.10025513    -0.0079342508   0.021627999  
    218500   0.36984024     0.38175423     0.44485853     0.28290796    -0.0069803727   0.010866814    0.017560222  
    219000   0.27366769     0.19325042     0.27182739     0.35592525     0.011814249    0.043668766   -0.050634642  
    219500   0.27147181     0.30982429     0.28218714     0.222404       0.0042656768  -0.0063750232   0.010988848  
    220000   0.26935649     0.2819674      0.33523409     0.190868      -0.044502654   -0.0065700908  -0.058505929  
    220500   0.27726569     0.26137275     0.27582394     0.29460038     0.02671207     0.055846469   -0.040696484  
    221000   0.2874881      0.27031038     0.27311489     0.31903903    -0.027541335    0.00015559823  0.0091971063 
    221500   0.18361495     0.10486349     0.2419494      0.20403195     0.03098222     0.011859611    0.066587121  
    222000   0.30952765     0.28224189     0.28765931     0.35868175    -0.015409455    0.049556118   -0.054974048  
    222500   0.35902603     0.28471626     0.40633087     0.38603095    -0.018737746   -0.0054448842   0.024977671  
    223000   0.34761673     0.32407132     0.41845383     0.30032506     0.0079096591  -0.074325034   -0.025723374  
    223500   0.23826361     0.3260334      0.254195       0.13456243    -0.042291727    0.032653227   -0.035615466  
    224000   0.2706197      0.28880996     0.33468121     0.18836794     0.001834021   -0.013104563   -0.046625803  
    224500   0.24898158     0.18562276     0.31652608     0.24479589    -0.072957051    0.026227081    0.01641763   
    225000   0.30120469     0.344885       0.28100503     0.27772405     0.079185895    0.027281691   -0.049826689  
    225500   0.25071042     0.34362756     0.22624864     0.18225504     0.061981592    0.023659693   -0.027282208  
    226000   0.40779036     0.3209393      0.44014263     0.46228916     0.050089377    0.020371433    0.046906879  
    226500   0.27764462     0.37038171     0.28799687     0.17455529    -0.045955314   -0.029834056    0.032388837  
    227000   0.22658163     0.19231616     0.15227123     0.33515749     0.0039242456  -0.014818714    0.034237522  
    227500   0.2892791      0.16804134     0.40615139     0.29364458    -0.026692658    0.089150728    0.052911894  
    228000   0.25695092     0.23060735     0.24169501     0.29855039    -0.091545587    0.058354966   -0.083770555  
    228500   0.22878504     0.25478157     0.1531074      0.27846616     0.0033678452   0.064030848   -0.025620898  
    229000   0.24785693     0.2783276      0.23178201     0.2334612     -0.0077734343   0.043174186   -0.071605511  
    229500   0.27172132     0.38256874     0.20976111     0.22283412     0.059999093    0.03007832    -0.047458236  
    230000   0.26186757     0.33017984     0.24740554     0.20801732     0.047573594    0.038609318    0.052198496  
    230500   0.19381293     0.22472616     0.15949646     0.19721616     0.058021734   -0.041888122    0.0067525672 
    231000   0.25103208     0.22086799     0.27500295     0.25722531     0.029053962    0.043147836    0.063543871  
    231500   0.25746018     0.27951971     0.26097211     0.23188871    -0.071879523    0.0042782219   0.06730557   
    232000   0.24552008     0.20078162     0.31384564     0.22193299    -0.00490086     0.021470313   -0.011580635  
    232500   0.22529921     0.18556309     0.21559001     0.27474454    -0.062490987   -0.01769478     0.061496772  
    233000   0.29305438     0.27644809     0.32215632     0.28055873     0.063753774   -0.052688572   -0.020862443  
    233500   0.30915418     0.31170761     0.31074569     0.30500924     0.03916345     0.037452571   -0.028494468  
    234000   0.23028        0.22834534     0.28927312     0.17322154    -0.011775145   -0.020156652   -0.10253249   
    234500   0.34567715     0.31713503     0.337335       0.38256142     0.073271025    0.046992118    0.040658302  
    235000   0.31826689     0.29717154     0.30423276     0.35339638     0.0035027955   0.034216592    0.005701672  
    235500   0.26585829     0.26838907     0.23394826     0.29523754     0.0079119368   0.0098257585  -0.051628306  
    236000   0.32767007     0.29985813     0.22351496     0.45963711     0.020103613    0.0067489456  -0.069049375  
    236500   0.26097215     0.22634129     0.3306212      0.22595397    -0.0055101657  -0.009837124   -0.010235692  
    237000   0.25192561     0.21014974     0.23852682     0.30710026    -0.053747602    0.033058325   -0.0038109603 
    237500   0.31403105     0.24854447     0.24401829     0.44953039    -0.002661319    0.0039619714  -0.020816892  
    238000   0.21887766     0.20734479     0.2412755      0.20801269    -0.046329127   -0.0035237497  -0.085008513  
    238500   0.36664085     0.45376746     0.32009085     0.32606424    -0.037491297   -0.022180418   -0.032815318  
    239000   0.32562469     0.26866047     0.32323529     0.38497833    -0.053450179    0.035518773    0.019213063  
    239500   0.24776109     0.23923623     0.29078505     0.21326198    -0.057082594   -0.0055088163  -0.035632064  
    240000   0.37562166     0.36102867     0.38112367     0.38471264     0.054815652    0.082901591    0.11850722   
    240500   0.24782189     0.30965015     0.18813443     0.24568107    -0.058438369    0.016552929    0.069264886  
    241000   0.27577217     0.23183145     0.27782263     0.31766241     0.059123213   -0.0071898925   0.078517475  
    241500   0.25730266     0.33840193     0.22864337     0.20486267    -0.019221343    0.048617849   -0.028228737  
    242000   0.14930308     0.14666565     0.10552347     0.19572012    -0.026108228   -0.013992253   -0.019237198  
    242500   0.34864365     0.28767059     0.42238804     0.33587233    -0.0038299002   0.052116001    0.018570737  
    243000   0.26619082     0.24452879     0.25477911     0.29926455    -0.072838773   -0.018652757   -0.045565495  
    243500   0.3045961      0.38305602     0.32977118     0.2009611      0.054801099   -0.03528139     0.08239796   
    244000   0.21200522     0.17136714     0.22240221     0.24224631    -0.0090081237   0.075197454    0.023102537  
    244500   0.19003504     0.17498111     0.20755316     0.18757084     0.057899875   -0.057135779   -0.05503346   
    245000   0.41203774     0.33593615     0.48394979     0.41622729    -0.035390819   -0.051278026    0.065707553  
    245500   0.21356518     0.22745469     0.26924976     0.14399109    -0.014389019   -0.038883478    0.0052248323 
    246000   0.26258206     0.18432714     0.27859642     0.32482262    -0.027127088    0.034103682   -0.063774349  
    246500   0.30834563     0.17352681     0.50655606     0.24495401    -0.0069520414   0.052930191    0.034268255  
    247000   0.37896442     0.37245864     0.45773524     0.30669938    -0.044755864   -0.01681878    -0.02258275   
    247500   0.29984207     0.2912939      0.2745177      0.33371459    -0.037753731   -0.053313656   -0.0039223138 
    248000   0.29331805     0.15069623     0.32943023     0.39982771     0.01558767     0.0231696      0.0053638508 
    248500   0.24406472     0.28942794     0.23562697     0.20713925     0.0047871079   0.018615924    0.017629384  
    249000   0.29077808     0.3042127      0.21746127     0.35066027     0.11805297     0.022680507   -0.045188228  
    249500   0.32663591     0.35367745     0.26377849     0.36245177     0.012864025   -0.012881468    0.012418496  
    250000   0.28795275     0.22533017     0.29057478     0.34795331     0.018075163   -0.030753931    0.049201204  
    250500   0.17985193     0.14566177     0.18851352     0.20538051    -0.010353456   -0.014340489   -0.017408993  
    251000   0.32979562     0.23635581     0.27243659     0.48059444     0.0070140218  -0.00079010197  0.013995936  
    251500   0.33769488     0.31925826     0.41803492     0.27579146    -0.0217959      0.070094671    0.043000179  
    252000   0.28093208     0.19705451     0.31684959     0.32889215    -0.07253128     0.053068543   -0.014580258  
    252500   0.32703544     0.46409944     0.2552305      0.26177637    -0.0074240208   0.046060363    0.0086604907 
    253000   0.1891295      0.21698313     0.22189381     0.12851158     0.046365795   -0.063365333    0.039408464  
    253500   0.38858515     0.25078157     0.47162333     0.44335055    -0.033654148    0.04294062     0.014094724  
    254000   0.23558949     0.25799464     0.17088704     0.2778868      0.043014847   -0.056470543    0.019153964  
    254500   0.18959837     0.19438924     0.15732278     0.2170831      0.0025850134   0.012118805    0.093160841  
    255000   0.24788132     0.34334692     0.14704056     0.25325649    -0.028514993    0.0015591052  -0.0095722494 
    255500   0.27438455     0.22641391     0.26066747     0.33607227     0.064082395   -0.020730905   -0.035889943  
    256000   0.33993609     0.33471781     0.39297672     0.29211375    -0.043657174   -0.049825611    0.006315915  
    256500   0.37294015     0.29063621     0.428896       0.39928823     0.064441069   -0.049988549    0.048792045  
    257000   0.31334971     0.30639627     0.28653385     0.34711901     0.039780419   -0.013270033    0.028066784  
    257500   0.2820758      0.24670274     0.25349041     0.34603426    -0.038985989   -0.02390945     0.013860119  
    258000   0.25509328     0.23132932     0.29822414     0.23572637    -0.016945323   -0.044216135    0.015525961  
    258500   0.21373353     0.28948784     0.18976925     0.16194351    -0.035645199   -0.0088648249  -0.055664696  
    259000   0.2579783      0.17786063     0.2535343      0.34253998    -0.041844454   -0.0506444     -0.037467574  
    259500   0.27547271     0.25202671     0.29214459     0.28224682     0.016094058   -0.024562015   -0.028641151  
    260000   0.21053657     0.14330731     0.23397883     0.25432358     0.013664424    0.12483599    -0.093739372  
    260500   0.30588083     0.40671103     0.2740803      0.23685116    -0.0056234162  -0.011617328    0.053444521  
    261000   0.29376499     0.27513691     0.30919256     0.2969655      0.073784257    0.033823539    0.019574194  
    261500   0.23083655     0.18253348     0.28598047     0.22399569     0.0014371449   0.036978796   -0.068883675  
    262000   0.31164016     0.31386407     0.27384497     0.34721145     0.067985437   -0.11112968     0.01370897   
    262500   0.27802787     0.29438186     0.31112649     0.22857525     0.068897281    0.028592615   -0.022006129  
    263000   0.31205612     0.26729827     0.30436926     0.36450083     0.01959533    -0.0068989427   0.025657493  
    263500   0.25142208     0.19892954     0.27184145     0.28349524     0.027547413    0.0041913958  -0.06595694   
    264000   0.35651924     0.35965366     0.26635457     0.44354948     0.019778358   -0.015579835    0.047102884  
    264500   0.27330659     0.25836198     0.26573862     0.29581917    -0.0097766689  -0.054838127    0.033954171  
    265000   0.33604684     0.44347989     0.23283666     0.33182396     0.061074328   -0.01708099     0.020710404  
    265500   0.24452094     0.2949054      0.19530197     0.24335545    -0.045611329   -0.0093292251  -0.042844231  
    266000   0.25568914     0.19265697     0.32849052     0.24591995     0.0090673803   0.030374897    0.020792863  
    266500   0.15517142     0.093136788    0.14298674     0.22939072     0.025942266    0.12221479    -0.050624284  
    267000   0.34055634     0.30839008     0.29225101     0.42102794     0.02846644     0.05839542    -0.037617978  
    267500   0.32334755     0.23433721     0.3047174      0.43098806    -0.027971871    0.028676075    0.00013082139
    268000   0.19280504     0.078400264    0.29490741     0.20510746     0.038075952    0.074075512    0.014403736  
    268500   0.34681905     0.27636409     0.420848       0.34324507     0.018517735    0.036961267    0.059695101  
    269000   0.30305155     0.41607845     0.22666476     0.26641145    -0.027912128   -0.031811664   -0.06585645   
    269500   0.2089375      0.17827659     0.19801502     0.25052089    -0.056263596   -0.023053056    0.0051181218 
    270000   0.19613947     0.21077996     0.12733687     0.25030159     0.028465673   -0.036851504    0.045514868  
    270500   0.18774737     0.1096343      0.13282087     0.32078693    -0.022262292   -0.025221654    0.023092202  
    271000   0.2362167      0.28130811     0.25772157     0.16962041    -0.0055561629  -0.063417508    0.057853877  
    271500   0.09462115     0.085449524    0.053707107    0.14470682    -0.0083716313  -0.0080917189  -0.0039784911 
    272000   0.3320675      0.29211417     0.29448114     0.40960721     0.027822718    0.033038467   -0.069651511  
    272500   0.27800152     0.2472604      0.31761294     0.26913122     0.00074524112  0.017721426    0.059942485  
    273000   0.28579887     0.31544414     0.25957081     0.28238166     0.0562339     -0.014343785   -0.058564969  
    273500   0.25412885     0.32196724     0.24503753     0.19538179    -0.011270876    0.036965511   -0.045059471  
    274000   0.30488601     0.28646337     0.31567144     0.31252321     0.076768257   -0.0094106028   0.021404463  
    274500   0.30720504     0.23949314     0.33633367     0.34578831    -0.028526328    0.0073826764  -0.016126139  
    275000   0.35463875     0.43723674     0.37460786     0.25207164    -0.049473131    0.031245709   -0.022505474  
    275500   0.29579979     0.292017       0.36439694     0.23098543     0.0091773205  -0.00126678    -0.068159627  
    276000   0.30618733     0.30044658     0.31308746     0.30502795    -0.010410644    0.035684655    0.029027442  
    276500   0.22556336     0.25808426     0.22034476     0.19826104     0.014165951   -0.06094802    -0.016011633  
    277000   0.24232452     0.23817937     0.15911948     0.32967472    -0.021057783   -0.040894155   -0.022879937  
    277500   0.35488713     0.28086942     0.33423501     0.44955695     0.048791561    0.052038287   -0.046694427  
    278000   0.32729672     0.29286639     0.36878334     0.32024044    -0.051003631   -0.049620415   -0.022731263  
    278500   0.33178812     0.23600503     0.43504469     0.32431464     0.034415143    0.071536019    0.087862684  
    279000   0.24515016     0.22656971     0.22726491     0.28161586    -0.011301691   -0.026843032   -0.026458151  
    279500   0.21865948     0.20688485     0.22246089     0.22663271     0.006087756    0.030294673   -0.055420909  
    280000   0.24869329     0.24493262     0.27832565     0.2228216      0.077238703    0.0018137216  -0.0039129011 
    280500   0.23681245     0.19033673     0.19136261     0.32873802     0.032751291   -0.029864035   -0.026079654  
    281000   0.28067333     0.28474441     0.28734447     0.26993112    -0.0049337987  -0.090444504   -0.040613752  
    281500   0.23858033     0.23220323     0.27620917     0.20732859     0.0048099485  -0.007976319   -0.054422198  
    282000   0.34638487     0.45357657     0.23968327     0.34589476    -0.0059566004  -0.0067964323   0.052409382  
    282500   0.27090495     0.19434352     0.27988699     0.33848436    -0.0091454254   0.07940115    -0.043588385  
    283000   0.30540328     0.25092114     0.32574494     0.33954376    -0.03992343     0.046146438   -0.023621092  
    283500   0.20184205     0.24320131     0.14888196     0.21344289    -0.019079777    0.010813778    0.061281346  
    284000   0.21646708     0.15917443     0.2127798      0.27744702     0.0085246942   0.018038947    0.010191362  
    284500   0.28518983     0.24794327     0.31267236     0.29495385     0.01993632     0.080343763    0.031530458  
    285000   0.3231269      0.22584332     0.39659138     0.34694601    -0.081283016    0.0029967396  -0.0060414888 
    285500   0.34814379     0.25493761     0.37234527     0.4171485     -0.010933526   -0.051882887   -0.000999998  
    286000   0.26177518     0.24273225     0.25902013     0.28357317    -0.043322878    0.06462292     0.0044044029 
    286500   0.28261595     0.30672346     0.25616512     0.28495928     0.084291052    0.020673999    0.053524679  
    287000   0.2656757      0.27573916     0.2744426      0.24684533     0.015903864    0.017676744   -0.045949749  
    287500   0.32028232     0.2214425      0.36980613     0.36959832    -0.061794618    0.010677014   -0.050956756  
    288000   0.32450381     0.37115932     0.26305858     0.33929353     0.093256176    0.045601475   -0.055922404  
    288500   0.35537688     0.30946664     0.37907704     0.37758696    -0.068847814   -0.0023475857  -0.12134682   
    289000   0.17412021     0.19925737     0.18533231     0.13777095    -0.075013222   -0.040118017   -0.026197053  
    289500   0.25724343     0.23335432     0.29045277     0.24792321    -0.01597285    -0.025641101   -0.078579779  
    290000   0.23109279     0.23283392     0.25586444     0.20458        0.013810943   -0.0073815417  -0.045983636  
    290500   0.3329204      0.27786534     0.32255245     0.3983434     -0.068635917    0.045397294   -0.096523045  
    291000   0.2588621      0.22472724     0.24623968     0.30561936     0.015211945   -0.032957891    0.060285982  
    291500   0.20445665     0.14077256     0.18002854     0.29256887     0.01321572    -0.00094438666  0.0044081427 
    292000   0.26003315     0.2305369      0.24967568     0.29988689    -0.036932307    0.01457617     0.03098731   
    292500   0.22309944     0.23165784     0.1961701      0.24147038    -0.016184777    0.062886288    0.043447216  
    293000   0.30989194     0.27269967     0.29554642     0.36142974     0.049574646    0.065650307    0.0014560784 
    293500   0.32831309     0.22393703     0.33735321     0.42364901     0.059643468    0.037227126    0.061540959  
    294000   0.28377841     0.24983233     0.31097764     0.29052526     0.063143659   -0.054843304   -0.050912017  
    294500   0.27210646     0.27097734     0.26509181     0.28025024    -0.0083312719  -0.032101955   -0.0013041527 
    295000   0.19109598     0.094352571    0.19497315     0.28396221    -0.022665488    0.02486844     0.0045933668 
    295500   0.25120277     0.24831212     0.26549135     0.23980482    -0.087600068    0.01817708     0.025306159  
    296000   0.2985723      0.2316627      0.34669013     0.31736407     0.071450523   -0.051560242    0.054394336  
    296500   0.22601081     0.16659312     0.23780083     0.27363847    -0.047722845   -0.060358666   -0.052456661  
    297000   0.37135137     0.28893186     0.38785295     0.43726928    -0.10882918    -0.00096495467  0.019610605  
    297500   0.3567848      0.39524318     0.37150438     0.30360683     0.031205753   -0.036919322   -0.0069930176 
    298000   0.36701292     0.25188257     0.40750129     0.4416549      0.010355716    0.0067964411  -0.022620539  
    298500   0.25888297     0.17626765     0.24960415     0.35077712     0.010477681    0.04478164     0.05060838   
    299000   0.26351099     0.24563688     0.23997772     0.30491838     0.068317868   -0.0071257706   0.0048341899 
    299500   0.23558207     0.16187016     0.26726051     0.27761554    -0.011519143   -0.054310558   -0.055688355  
    300000   0.27579587     0.20473266     0.29195616     0.33069879    -0.024239964   -0.04677292    -0.043700014  
Loop time of 1769.19 on 1 procs for 300000 steps with 4896 atoms

Performance: 73253.967 tau/day, 169.569 timesteps/s, 830.212 katom-step/s
95.5% CPU use with 1 MPI tasks x no OpenMP threads

MPI task timing breakdown:
Section |  min time  |  avg time  |  max time  |%varavg| %total
---------------------------------------------------------------
Pair    | 1041.5     | 1041.5     | 1041.5     |   0.0 | 58.87
Bond    | 6.6462     | 6.6462     | 6.6462     |   0.0 |  0.38
Neigh   | 626.98     | 626.98     | 626.98     |   0.0 | 35.44
Comm    | 31.657     | 31.657     | 31.657     |   0.0 |  1.79
Output  | 7.2872     | 7.2872     | 7.2872     |   0.0 |  0.41
Modify  | 45.422     | 45.422     | 45.422     |   0.0 |  2.57
Other   |            | 9.733      |            |       |  0.55

Nlocal:           4896 ave        4896 max        4896 min
Histogram: 1 0 0 0 0 0 0 0 0 0
Nghost:           5354 ave        5354 max        5354 min
Histogram: 1 0 0 0 0 0 0 0 0 0
Neighs:         129558 ave      129558 max      129558 min
Histogram: 1 0 0 0 0 0 0 0 0 0

Total # of neighbors = 129558
Ave neighs/atom = 26.46201
Ave special neighs/atom = 0.32679739
Neighbor list builds = 43969
Dangerous builds = 191
# undump 	1
# undump		2
# unfix		3
# unfix		4
Total wall time: 0:30:10
